c Result of efficient AIG-to-CNF conversion using package CNF
p cnf 674 2454
2 642 643 -3 0
-2 -642 0
-2 3 0
-2 -643 0
-3 4 252 259 0
-3 4 -251 252 0
3 -4 0
3 -252 0
3 251 -259 0
4 644 5 17 -20 0
-4 -5 0
-4 -17 0
-4 -644 0
-4 20 0
-5 645 6 0
5 -645 0
5 -6 0
-6 650 7 12 13 0
6 -650 0
6 -13 0
6 -12 0
6 -7 0
-7 8 9 10 11 0
7 -11 0
7 -8 0
7 -10 0
7 -9 0
-8 646 647 0
8 -646 0
8 -647 0
-9 661 662 0
9 -661 0
9 -662 0
-10 654 655 658 659 0
10 -659 0
10 -658 0
10 -654 0
10 -655 0
-11 648 649 0
11 -648 0
11 -649 0
-12 656 657 0
12 -656 0
12 -657 0
-13 660 663 14 16 0
13 -660 0
13 -16 0
13 -14 0
13 -663 0
-14 664 665 669 15 0
14 -15 0
14 -669 0
14 -664 0
14 -665 0
-15 666 667 668 0
15 -666 0
15 -668 0
15 -667 0
-16 651 652 653 0
16 -651 0
16 -653 0
16 -652 0
17 670 -18 0
-17 -670 0
-17 18 0
18 671 -19 0
-18 -671 0
-18 19 0
19 -610 672 -673 0
19 -611 672 673 0
-19 -672 0
-19 610 -673 0
-19 611 673 0
20 670 -21 0
-20 -670 0
-20 21 0
21 671 -22 0
-21 -671 0
-21 22 0
22 672 -23 0
-22 -672 0
-22 23 0
23 673 -24 0
23 -673 -247 0
-23 -673 247 0
-23 673 24 0
24 -25 244 0
24 25 -244 0
-24 25 244 0
-24 -25 -244 0
25 -26 -42 0
-25 26 0
-25 42 0
-26 612 35 0
-26 612 -27 0
-26 612 -39 0
26 -612 0
26 27 -35 39 0
-27 28 32 0
27 -28 0
27 -32 0
-28 627 628 637 29 0
28 -29 0
28 -637 0
28 -627 0
28 -628 0
-29 630 632 30 31 0
29 -630 0
29 -31 0
29 -30 0
29 -632 0
-30 631 633 634 635 0
30 -635 0
30 -634 0
30 -631 0
30 -633 0
-31 629 636 0
31 -629 0
31 -636 0
-32 611 33 0
32 -611 0
32 -33 0
-33 610 613 614 34 0
33 -34 0
33 -614 0
33 -610 0
33 -613 0
-34 615 616 617 618 0
34 -618 0
34 -617 0
34 -615 0
34 -616 0
35 638 -36 0
-35 -638 0
-35 36 0
36 639 -37 0
-36 -639 0
-36 37 0
37 640 -38 0
37 -640 641 -642 0
-37 -640 -641 0
-37 640 38 0
-37 -640 642 0
38 -641 -643 0
38 641 -644 0
-38 641 644 0
-38 -641 643 0
-39 626 40 41 0
39 -41 0
39 -40 0
39 -626 0
-40 623 624 625 0
40 -623 0
40 -625 0
40 -624 0
-41 619 620 621 622 0
41 -622 0
41 -621 0
41 -619 0
41 -620 0
42 -43 -55 0
-42 43 0
-42 55 0
-43 613 -49 0
-43 613 44 0
43 -613 0
43 -44 49 0
44 638 -45 0
-44 -638 0
-44 45 0
45 639 -46 0
-45 -639 0
-45 46 0
46 640 -47 0
46 -640 -48 0
-46 -640 48 0
-46 640 47 0
47 -641 -644 0
47 641 -645 0
-47 641 645 0
-47 -641 644 0
48 -641 -642 0
48 641 -643 0
-48 641 643 0
-48 -641 642 0
-49 637 50 0
49 -637 0
49 -50 0
-50 617 618 51 53 0
50 -617 0
50 -53 0
50 -51 0
50 -618 0
-51 29 40 41 52 0
51 -52 0
51 -29 0
51 -41 0
51 -40 0
-52 626 627 628 0
52 -626 0
52 -628 0
52 -627 0
-53 610 615 616 54 0
53 -54 0
53 -616 0
53 -610 0
53 -615 0
-54 611 612 613 614 0
54 -614 0
54 -613 0
54 -611 0
54 -612 0
55 -56 -62 0
-55 56 0
-55 62 0
-56 614 57 0
-56 614 -49 0
56 -614 0
56 49 -57 0
57 638 -58 0
-57 -638 0
-57 58 0
58 639 -59 0
58 -639 -61 0
-58 -639 61 0
-58 639 59 0
59 -640 -38 0
59 640 -60 0
-59 640 60 0
-59 -640 38 0
60 -641 -645 0
60 641 -646 0
-60 641 646 0
-60 -641 645 0
61 640 641 -642 0
-61 642 0
-61 -641 0
-61 -640 0
62 -63 -69 0
-62 63 0
-62 69 0
-63 615 64 0
-63 615 -49 0
63 -615 0
63 49 -64 0
64 638 -65 0
-64 -638 0
-64 65 0
65 639 -66 0
65 -639 -68 0
-65 -639 68 0
-65 639 66 0
66 -640 -47 0
66 640 -67 0
-66 640 67 0
-66 -640 47 0
67 -641 -646 0
67 641 -647 0
-67 641 647 0
-67 -641 646 0
68 640 641 -643 0
68 640 -641 -642 0
-68 -640 0
-68 -641 642 0
-68 641 643 0
69 -70 -75 0
-69 70 0
-69 75 0
-70 616 71 0
-70 616 -49 0
70 -616 0
70 49 -71 0
71 638 -72 0
-71 -638 0
-71 72 0
72 -639 -37 0
72 639 -73 0
-72 639 73 0
-72 -639 37 0
73 -640 -60 0
73 640 -74 0
-73 640 74 0
-73 -640 60 0
74 -641 -647 0
74 641 -648 0
-74 641 648 0
-74 -641 647 0
75 -76 -81 0
-75 76 0
-75 81 0
-76 617 77 0
-76 617 -49 0
76 -617 0
76 49 -77 0
77 638 -78 0
-77 -638 0
-77 78 0
78 -639 -46 0
78 639 -79 0
-78 639 79 0
-78 -639 46 0
79 -640 -67 0
79 640 -80 0
-79 640 80 0
-79 -640 67 0
80 -641 -648 0
80 641 -649 0
-80 641 649 0
-80 -641 648 0
81 -82 -88 0
-81 82 0
-81 88 0
-82 618 83 0
-82 618 -49 0
82 -618 0
82 49 -83 0
83 638 -84 0
83 -638 -87 0
-83 -638 87 0
-83 638 84 0
84 -639 -59 0
84 639 -85 0
-84 639 85 0
-84 -639 59 0
85 -640 -74 0
85 640 -86 0
-85 640 86 0
-85 -640 74 0
86 -641 -649 0
86 641 -650 0
-86 641 650 0
-86 -641 649 0
87 639 640 641 -642 0
-87 642 0
-87 -641 0
-87 -639 0
-87 -640 0
88 -89 -95 0
-88 89 0
-88 95 0
-89 619 90 0
-89 619 -49 0
89 -619 0
89 49 -90 0
90 638 -91 0
90 -638 -94 0
-90 -638 94 0
-90 638 91 0
91 -639 -66 0
91 639 -92 0
-91 639 92 0
-91 -639 66 0
92 -640 -80 0
92 640 -93 0
-92 640 93 0
-92 -640 80 0
93 -641 -650 0
93 641 -651 0
-93 641 651 0
-93 -641 650 0
94 639 -68 0
-94 -639 0
-94 68 0
95 -96 -101 0
-95 96 0
-95 101 0
-96 620 97 0
-96 620 -49 0
96 -620 0
96 49 -97 0
97 -638 -36 0
97 638 -98 0
-97 638 98 0
-97 -638 36 0
98 -639 -73 0
98 639 -99 0
-98 639 99 0
-98 -639 73 0
99 -640 -86 0
99 640 -100 0
-99 640 100 0
-99 -640 86 0
100 -641 -651 0
100 641 -652 0
-100 641 652 0
-100 -641 651 0
101 -102 -107 0
-101 102 0
-101 107 0
-102 621 103 0
-102 621 -49 0
102 -621 0
102 49 -103 0
103 -638 -45 0
103 638 -104 0
-103 638 104 0
-103 -638 45 0
104 -639 -79 0
104 639 -105 0
-104 639 105 0
-104 -639 79 0
105 -640 -93 0
105 640 -106 0
-105 640 106 0
-105 -640 93 0
106 -641 -652 0
106 641 -653 0
-106 641 653 0
-106 -641 652 0
107 -108 -113 0
-107 108 0
-107 113 0
-108 622 109 0
-108 622 -49 0
108 -622 0
108 49 -109 0
109 -638 -58 0
109 638 -110 0
-109 638 110 0
-109 -638 58 0
110 -639 -85 0
110 639 -111 0
-110 639 111 0
-110 -639 85 0
111 -640 -100 0
111 640 -112 0
-111 640 112 0
-111 -640 100 0
112 -641 -653 0
112 641 -654 0
-112 641 654 0
-112 -641 653 0
113 -114 -119 0
-113 114 0
-113 119 0
-114 623 115 0
-114 623 -49 0
114 -623 0
114 49 -115 0
115 -638 -65 0
115 638 -116 0
-115 638 116 0
-115 -638 65 0
116 -639 -92 0
116 639 -117 0
-116 639 117 0
-116 -639 92 0
117 -640 -106 0
117 640 -118 0
-117 640 118 0
-117 -640 106 0
118 -641 -654 0
118 641 -655 0
-118 641 655 0
-118 -641 654 0
119 -120 -125 0
-119 120 0
-119 125 0
-120 624 121 0
-120 624 -49 0
120 -624 0
120 49 -121 0
121 -638 -72 0
121 638 -122 0
-121 638 122 0
-121 -638 72 0
122 -639 -99 0
122 639 -123 0
-122 639 123 0
-122 -639 99 0
123 -640 -112 0
123 640 -124 0
-123 640 124 0
-123 -640 112 0
124 -641 -655 0
124 641 -656 0
-124 641 656 0
-124 -641 655 0
125 -126 -131 0
-125 126 0
-125 131 0
-126 625 127 0
-126 625 -49 0
126 -625 0
126 49 -127 0
127 -638 -78 0
127 638 -128 0
-127 638 128 0
-127 -638 78 0
128 -639 -105 0
128 639 -129 0
-128 639 129 0
-128 -639 105 0
129 -640 -118 0
129 640 -130 0
-129 640 130 0
-129 -640 118 0
130 -641 -656 0
130 641 -657 0
-130 641 657 0
-130 -641 656 0
131 -132 -139 0
-131 132 0
-131 139 0
-132 626 -138 0
-132 626 -50 0
-132 626 133 0
132 -626 0
132 50 -133 138 0
-133 134 135 0
133 -134 0
133 -135 0
-134 637 638 0
134 -637 0
134 -638 0
135 -639 -111 0
135 639 -136 0
-135 639 136 0
-135 -639 111 0
136 -640 -124 0
136 640 -137 0
-136 640 137 0
-136 -640 124 0
137 -641 -657 0
137 641 -658 0
-137 641 658 0
-137 -641 657 0
138 -638 84 0
138 -637 87 0
138 -637 -638 0
-138 638 -87 0
-138 637 -84 0
-138 637 638 0
139 -140 -147 0
-139 140 0
-139 147 0
-140 627 142 0
-140 627 -637 141 0
140 -627 0
140 637 -142 0
140 -141 -142 0
141 638 -94 0
-141 -638 0
-141 94 0
142 638 50 -143 0
142 50 -91 -143 0
-142 -50 0
-142 143 0
-142 -638 91 0
-143 134 144 0
143 -134 0
143 -144 0
144 -639 -117 0
144 639 -145 0
-144 639 145 0
-144 -639 117 0
145 -640 -130 0
145 640 -146 0
-145 640 146 0
-145 -640 130 0
146 -641 -658 0
146 641 -659 0
-146 641 659 0
-146 -641 658 0
147 -148 -154 0
-147 148 0
-147 154 0
-148 628 -50 0
-148 628 -153 0
-148 628 149 0
148 -628 0
148 50 -149 153 0
-149 134 150 0
149 -134 0
149 -150 0
150 -639 -123 0
150 639 -151 0
-150 639 151 0
-150 -639 123 0
151 -640 -137 0
151 640 -152 0
-151 640 152 0
-151 -640 137 0
152 -641 -659 0
152 641 -660 0
-152 641 660 0
-152 -641 659 0
-153 637 638 0
-153 -35 -98 0
-153 637 -98 0
-153 638 -35 0
153 -637 35 0
153 -638 98 0
154 -155 -161 0
-154 155 0
-154 161 0
-155 629 -50 0
-155 629 157 0
-155 629 -156 0
155 -629 0
155 50 156 -157 0
156 -637 44 0
-156 637 0
-156 -44 0
157 -638 -104 0
157 -637 638 0
157 638 -158 0
-157 -638 104 0
-157 637 638 158 0
158 -639 -129 0
158 639 -159 0
-158 639 159 0
-158 -639 129 0
159 -640 -146 0
159 640 -160 0
-159 640 160 0
-159 -640 146 0
160 -641 -660 0
160 641 -661 0
-160 641 661 0
-160 -641 660 0
161 -162 -168 0
-161 162 0
-161 168 0
-162 630 -50 0
-162 630 163 0
162 -630 0
162 50 -163 0
-163 -637 57 0
-163 637 164 0
163 -637 -57 0
163 637 -164 0
-164 638 165 0
-164 -638 110 0
164 -638 -110 0
164 638 -165 0
165 -639 -136 0
165 639 -166 0
-165 639 166 0
-165 -639 136 0
166 -640 -152 0
166 640 -167 0
-166 640 167 0
-166 -640 152 0
167 -641 -661 0
167 641 -662 0
-167 641 662 0
-167 -641 661 0
168 -169 -175 0
-168 169 0
-168 175 0
-169 631 -50 0
-169 631 170 0
169 -631 0
169 50 -170 0
-170 -637 64 0
-170 637 171 0
170 -637 -64 0
170 637 -171 0
-171 638 172 0
-171 -638 116 0
171 -638 -116 0
171 638 -172 0
172 -639 -145 0
172 639 -173 0
-172 639 173 0
-172 -639 145 0
173 -640 -160 0
173 640 -174 0
-173 640 174 0
-173 -640 160 0
174 -641 -662 0
174 641 -663 0
-174 641 663 0
-174 -641 662 0
175 -176 -182 0
-175 176 0
-175 182 0
-176 632 -50 0
-176 632 177 0
176 -632 0
176 50 -177 0
-177 -637 71 0
-177 637 178 0
177 -637 -71 0
177 637 -178 0
-178 638 179 0
-178 -638 122 0
178 -638 -122 0
178 638 -179 0
179 -639 -151 0
179 639 -180 0
-179 639 180 0
-179 -639 151 0
180 -640 -167 0
180 640 -181 0
-180 640 181 0
-180 -640 167 0
181 -641 -663 0
181 641 -664 0
-181 641 664 0
-181 -641 663 0
182 -183 -189 0
-182 183 0
-182 189 0
-183 633 -50 0
-183 633 184 0
183 -633 0
183 50 -184 0
-184 -637 77 0
-184 637 185 0
184 -637 -77 0
184 637 -185 0
-185 638 186 0
-185 -638 128 0
185 -638 -128 0
185 638 -186 0
186 -639 -159 0
186 639 -187 0
-186 639 187 0
-186 -639 159 0
187 -640 -174 0
187 640 -188 0
-187 640 188 0
-187 -640 174 0
188 -641 -664 0
188 641 -665 0
-188 641 665 0
-188 -641 664 0
189 -190 -196 0
-189 190 0
-189 196 0
-190 634 -50 0
-190 634 191 0
190 -634 0
190 50 -191 0
-191 -637 83 0
-191 637 192 0
191 -637 -83 0
191 637 -192 0
-192 -638 135 0
-192 638 193 0
192 -638 -135 0
192 638 -193 0
-193 639 194 0
-193 -639 166 0
193 -639 -166 0
193 639 -194 0
194 -640 -181 0
194 640 -195 0
-194 640 195 0
-194 -640 181 0
195 -641 -665 0
195 641 -666 0
-195 641 666 0
-195 -641 665 0
196 -197 -203 0
-196 197 0
-196 203 0
-197 635 -50 0
-197 635 198 0
197 -635 0
197 50 -198 0
-198 -637 90 0
-198 637 199 0
198 -637 -90 0
198 637 -199 0
-199 -638 144 0
-199 638 200 0
199 -638 -144 0
199 638 -200 0
-200 639 201 0
-200 -639 173 0
200 -639 -173 0
200 639 -201 0
201 -640 -188 0
201 640 -202 0
-201 640 202 0
-201 -640 188 0
202 -641 -666 0
202 641 -667 0
-202 641 667 0
-202 -641 666 0
203 -204 -210 0
-203 204 0
-203 210 0
-204 636 -50 0
-204 636 205 0
204 -636 0
204 50 -205 0
-205 -637 97 0
-205 637 206 0
205 -637 -97 0
205 637 -206 0
-206 -638 150 0
-206 638 207 0
206 -638 -150 0
206 638 -207 0
-207 639 208 0
-207 -639 180 0
207 -639 -180 0
207 639 -208 0
208 -640 -195 0
208 640 -209 0
-208 640 209 0
-208 -640 195 0
209 -641 -667 0
209 641 -668 0
-209 641 668 0
-209 -641 667 0
210 -211 -217 0
-210 211 0
-210 217 0
-211 637 212 0
211 -637 0
211 -212 0
212 637 50 -213 0
212 -637 50 -103 0
-212 -50 0
-212 637 213 0
-212 -637 103 0
-213 -638 158 0
-213 638 214 0
213 -638 -158 0
213 638 -214 0
-214 639 215 0
-214 -639 187 0
214 -639 -187 0
214 639 -215 0
215 -640 -202 0
215 640 -216 0
-215 640 216 0
-215 -640 202 0
216 -641 -668 0
216 641 -669 0
-216 641 669 0
-216 -641 668 0
-217 218 219 0
217 -218 0
217 -219 0
218 -637 50 -103 0
-218 637 0
-218 -50 0
-218 103 0
219 -638 -220 0
219 -220 -225 0
219 -638 -225 0
-219 638 225 0
-219 220 225 0
-219 638 220 0
220 637 50 -221 0
220 -637 50 -109 0
-220 -50 0
-220 637 221 0
-220 -637 109 0
-221 -638 165 0
-221 638 222 0
221 -638 -165 0
221 638 -222 0
-222 -639 194 0
-222 639 223 0
222 -639 -194 0
222 639 -223 0
-223 640 224 0
-223 -640 209 0
223 -640 -209 0
223 640 -224 0
224 -641 -669 0
224 641 -670 0
-224 641 670 0
-224 -641 669 0
225 -639 -226 0
225 -226 -232 0
225 -639 -232 0
-225 639 232 0
-225 226 232 0
-225 639 226 0
226 -637 51 231 0
226 51 -227 231 0
-226 -231 0
-226 -51 0
-226 637 227 0
227 -638 -172 0
227 638 -228 0
-227 638 228 0
-227 -638 172 0
228 -639 -201 0
228 639 -229 0
-228 -639 201 0
-228 639 229 0
-229 640 230 0
-229 -640 216 0
229 -640 -216 0
229 640 -230 0
230 -641 -670 0
230 641 -671 0
-230 641 671 0
-230 -641 670 0
-231 612 32 -115 0
-231 612 637 32 0
231 -612 0
231 -32 0
231 -637 115 0
232 -640 -233 0
232 -233 -238 0
232 -640 -238 0
-232 640 238 0
-232 233 238 0
-232 640 233 0
233 637 50 -234 0
233 -637 50 -121 0
-233 -50 0
-233 637 234 0
-233 -637 121 0
-234 -638 179 0
-234 638 235 0
234 -638 -179 0
234 638 -235 0
-235 -639 208 0
-235 639 236 0
235 -639 -208 0
235 639 -236 0
-236 640 237 0
-236 -640 224 0
236 -640 -224 0
236 640 -237 0
237 -641 -671 0
237 641 -672 0
-237 641 672 0
-237 -641 671 0
238 -641 -239 0
-238 641 0
-238 239 0
239 637 50 -240 0
239 -637 50 -127 0
-239 -50 0
-239 637 240 0
-239 -637 127 0
-240 -638 186 0
-240 638 241 0
240 -638 -186 0
240 638 -241 0
-241 -639 215 0
-241 639 242 0
241 -639 -215 0
241 639 -242 0
-242 640 243 0
-242 -640 230 0
242 -640 -230 0
242 640 -243 0
243 -641 -672 0
243 641 -673 0
-243 641 673 0
-243 -641 672 0
-244 611 94 0
-244 611 -33 0
-244 611 -245 0
244 -611 0
244 33 -94 245 0
-245 612 39 246 0
245 -246 0
245 -39 0
245 -612 0
-246 638 28 0
246 -638 0
246 -28 0
-247 610 248 250 0
-247 610 248 -249 0
247 -610 0
247 -248 0
247 249 -250 0
248 -25 -244 0
-248 25 0
-248 244 0
-249 39 54 0
249 -39 0
249 -54 0
250 34 -87 246 0
-250 -34 0
-250 87 0
-250 -246 0
-251 644 645 0
251 -644 0
251 -645 0
252 6 251 -253 257 0
-252 253 0
-252 -257 0
-252 -6 0
-252 -251 0
253 670 -254 0
-253 -670 0
-253 254 0
254 671 -255 0
-254 -671 0
-254 255 0
255 672 -256 0
-255 -672 0
-255 256 0
256 673 -247 0
-256 -673 0
-256 247 0
257 670 -258 0
-257 -670 0
-257 258 0
258 -610 671 672 673 0
-258 -673 0
-258 -672 0
-258 610 0
-258 -671 0
-259 260 509 532 578 0
259 -578 0
259 -260 0
259 -532 0
259 -509 0
-260 -6 261 457 0
-260 261 457 500 0
260 -457 0
260 -261 0
260 6 -500 0
-261 262 -344 419 0
-261 262 388 419 0
261 -419 0
261 -262 0
261 344 -388 0
-262 263 318 341 0
-262 263 -331 341 0
262 -263 0
262 -341 0
262 -318 331 0
263 264 -269 310 0
263 264 -269 -302 0
-263 -264 0
-263 269 0
-263 302 -310 0
-264 664 665 15 265 0
264 -664 0
264 -265 0
264 -15 0
264 -665 0
-265 266 267 268 0
265 -266 0
265 -267 0
265 -268 0
-266 650 8 11 16 0
266 -650 0
266 -16 0
266 -11 0
266 -8 0
-267 660 661 662 663 0
267 -663 0
267 -662 0
267 -660 0
267 -661 0
-268 656 657 10 0
268 -10 0
268 -657 0
268 -656 0
269 -253 -270 0
269 669 -270 0
-269 270 0
-269 -669 253 0
-270 669 -670 271 0
-270 669 670 287 0
270 -669 0
270 -670 -271 0
270 670 -287 0
271 671 -272 0
271 -671 -279 0
-271 -671 279 0
-271 671 272 0
272 672 -273 0
272 -672 -276 0
-272 -672 276 0
-272 672 273 0
273 -673 -275 0
273 673 -274 0
-273 673 274 0
-273 -673 275 0
-274 -82 -88 0
-274 82 88 0
274 82 -88 0
274 -82 88 0
-275 -76 -81 0
-275 76 81 0
275 76 -81 0
275 -76 81 0
276 -673 -278 0
276 673 -277 0
-276 673 277 0
-276 -673 278 0
-277 -70 -75 0
-277 70 75 0
277 70 -75 0
277 -70 75 0
-278 -63 -69 0
-278 63 69 0
278 63 -69 0
278 -63 69 0
279 672 -280 0
279 -672 -283 0
-279 -672 283 0
-279 672 280 0
280 -673 -282 0
280 673 -281 0
-280 673 281 0
-280 -673 282 0
-281 -56 -62 0
-281 56 62 0
281 56 -62 0
281 -56 62 0
-282 -43 -55 0
-282 43 55 0
282 43 -55 0
282 -43 55 0
283 -284 286 0
-283 284 0
-283 -286 0
-284 673 285 0
284 -673 0
284 -285 0
285 26 -42 0
285 -26 42 0
-285 -26 -42 0
-285 26 42 0
286 -673 24 0
-286 673 0
-286 -24 0
287 671 -288 0
287 -671 -295 0
-287 -671 295 0
-287 671 288 0
288 672 -289 0
288 -672 -292 0
-288 -672 292 0
-288 672 289 0
289 -673 -291 0
289 673 -290 0
-289 673 290 0
-289 -673 291 0
-290 -132 -139 0
-290 132 139 0
290 132 -139 0
290 -132 139 0
-291 -126 -131 0
-291 126 131 0
291 126 -131 0
291 -126 131 0
292 -673 -294 0
292 673 -293 0
-292 673 293 0
-292 -673 294 0
-293 -120 -125 0
-293 120 125 0
293 120 -125 0
293 -120 125 0
-294 -114 -119 0
-294 114 119 0
294 114 -119 0
294 -114 119 0
295 672 -296 0
295 -672 -299 0
-295 -672 299 0
-295 672 296 0
296 -673 -298 0
296 673 -297 0
-296 673 297 0
-296 -673 298 0
-297 -108 -113 0
-297 108 113 0
297 108 -113 0
297 -108 113 0
-298 -102 -107 0
-298 102 107 0
298 102 -107 0
298 -102 107 0
299 -673 -301 0
299 673 -300 0
-299 673 300 0
-299 -673 301 0
-300 -96 -101 0
-300 96 101 0
300 96 -101 0
300 -96 101 0
-301 -89 -95 0
-301 89 95 0
301 89 -95 0
301 -89 95 0
-302 669 -303 0
-302 670 -258 0
-302 669 670 0
302 -669 258 0
302 -670 303 0
302 -669 -670 0
303 671 -304 0
303 -671 -307 0
-303 -671 307 0
-303 671 304 0
304 672 -305 0
304 -672 -306 0
-304 -672 306 0
-304 672 305 0
305 -618 673 0
305 -617 -673 0
-305 618 673 0
-305 617 -673 0
306 -616 673 0
306 -615 -673 0
-306 616 673 0
-306 615 -673 0
307 672 -308 0
307 -672 -309 0
-307 -672 309 0
-307 672 308 0
308 -614 673 0
308 -613 -673 0
-308 614 673 0
-308 613 -673 0
309 -612 673 0
309 -611 -673 0
-309 612 673 0
-309 611 -673 0
-310 669 670 311 0
310 -669 0
310 -311 0
310 -670 0
311 671 -312 0
311 -671 -315 0
-311 -671 315 0
-311 671 312 0
312 672 -313 0
312 -672 -314 0
-312 -672 314 0
-312 672 313 0
313 -626 673 0
313 -625 -673 0
-313 626 673 0
-313 625 -673 0
314 -624 673 0
314 -623 -673 0
-314 624 673 0
-314 623 -673 0
315 672 -316 0
315 -672 -317 0
-315 -672 317 0
-315 672 316 0
316 -622 673 0
316 -621 -673 0
-316 622 673 0
-316 621 -673 0
317 -620 673 0
317 -619 -673 0
-317 620 673 0
-317 619 -673 0
318 669 264 -321 0
318 264 -319 -321 0
-318 -264 0
-318 321 0
-318 -669 319 0
319 670 -320 0
-319 -670 0
-319 320 0
320 -671 -255 0
320 671 -279 0
-320 671 279 0
-320 -671 255 0
-321 669 -670 322 0
-321 669 670 323 0
321 -669 0
321 -670 -322 0
321 670 -323 0
322 -671 -272 0
322 671 -295 0
-322 671 295 0
-322 -671 272 0
323 -671 -288 0
323 671 -324 0
-323 671 324 0
-323 -671 288 0
324 672 -325 0
324 -672 -328 0
-324 -672 328 0
-324 672 325 0
325 -673 -327 0
325 673 -326 0
-325 673 326 0
-325 -673 327 0
-326 -162 -168 0
-326 162 168 0
326 162 -168 0
326 -162 168 0
-327 -155 -161 0
-327 155 161 0
327 155 -161 0
327 -155 161 0
328 -673 -330 0
328 673 -329 0
-328 673 329 0
-328 -673 330 0
-329 -148 -154 0
-329 148 154 0
329 148 -154 0
329 -148 154 0
-330 -140 -147 0
-330 140 147 0
330 140 -147 0
330 -140 147 0
331 -669 264 -338 0
331 669 264 -332 0
-331 -264 0
-331 -669 338 0
-331 669 332 0
-332 670 334 0
-332 -670 333 0
332 -670 -333 0
332 670 -334 0
333 -671 -304 0
333 671 -315 0
-333 671 315 0
-333 -671 304 0
334 -671 -312 0
334 671 -335 0
-334 671 335 0
-334 -671 312 0
335 672 -336 0
335 -672 -337 0
-335 -672 337 0
-335 672 336 0
336 -630 673 0
336 -629 -673 0
-336 630 673 0
-336 629 -673 0
337 -628 673 0
337 -627 -673 0
-337 628 673 0
-337 627 -673 0
338 670 -339 0
-338 -670 0
-338 339 0
339 -671 -340 0
339 671 -307 0
-339 671 307 0
-339 -671 340 0
340 -610 672 673 0
-340 610 0
-340 -673 0
-340 -672 0
341 6 342 -343 0
-341 -6 0
-341 -342 0
-341 343 0
342 670 -333 0
342 -670 -339 0
-342 -670 339 0
-342 670 333 0
343 -670 -320 0
343 670 -322 0
-343 670 322 0
-343 -670 320 0
344 669 264 -359 0
344 -669 264 -345 0
-344 -264 0
-344 669 359 0
-344 -669 345 0
-345 670 352 0
-345 -670 346 0
345 -670 -346 0
345 670 -352 0
346 671 -347 0
346 -671 -350 0
-346 -671 350 0
-346 671 347 0
347 672 -348 0
347 -672 -349 0
-347 -672 349 0
-347 672 348 0
348 -673 -277 0
348 673 -275 0
-348 673 275 0
-348 -673 277 0
349 -673 -281 0
349 673 -278 0
-349 673 278 0
-349 -673 281 0
350 -672 -23 0
350 672 -351 0
-350 672 351 0
-350 -672 23 0
351 -673 -285 0
351 673 -282 0
-351 673 282 0
-351 -673 285 0
352 671 -353 0
352 -671 -356 0
-352 -671 356 0
-352 671 353 0
353 672 -354 0
353 -672 -355 0
-353 -672 355 0
-353 672 354 0
354 -673 -293 0
354 673 -291 0
-354 673 291 0
-354 -673 293 0
355 -673 -297 0
355 673 -294 0
-355 673 294 0
-355 -673 297 0
356 672 -357 0
356 -672 -358 0
-356 -672 358 0
-356 672 357 0
357 -673 -300 0
357 673 -298 0
-357 673 298 0
-357 -673 300 0
358 673 -301 0
358 -673 -274 0
-358 -673 274 0
-358 673 301 0
-359 670 379 0
-359 -670 360 0
-359 670 -370 0
359 -670 -360 0
359 670 370 -379 0
360 671 -361 0
360 -671 -367 0
-360 -671 367 0
-360 671 361 0
361 672 -362 0
361 -672 -365 0
-361 -672 365 0
-361 672 362 0
362 -673 -364 0
362 673 -363 0
-362 673 363 0
-362 -673 364 0
-363 -183 -189 0
-363 183 189 0
363 183 -189 0
363 -183 189 0
-364 -176 -182 0
-364 176 182 0
364 176 -182 0
364 -176 182 0
365 673 -366 0
365 -673 -326 0
-365 -673 326 0
-365 673 366 0
-366 -169 -175 0
-366 169 175 0
366 169 -175 0
366 -169 175 0
367 672 -368 0
367 -672 -369 0
-367 -672 369 0
-367 672 368 0
368 -673 -329 0
368 673 -327 0
-368 673 327 0
-368 -673 329 0
369 673 -330 0
369 -673 -290 0
-369 -673 290 0
-369 673 330 0
370 -671 371 0
-370 671 0
-370 -371 0
371 672 -372 0
371 -672 -376 0
-371 -672 376 0
-371 672 372 0
372 673 -373 0
372 -673 -375 0
-372 -673 375 0
-372 673 373 0
373 219 -374 0
373 -219 374 0
-373 -219 -374 0
-373 219 374 0
374 -211 218 0
-374 211 0
-374 -218 0
375 204 -210 0
375 -204 210 0
-375 -204 -210 0
-375 204 210 0
376 -673 -378 0
376 673 -377 0
-376 673 377 0
-376 -673 378 0
-377 -197 -203 0
-377 197 203 0
377 197 -203 0
377 -197 203 0
-378 -190 -196 0
-378 190 196 0
378 190 -196 0
378 -190 196 0
-379 671 -672 383 0
-379 671 672 380 0
379 -671 0
379 -672 -383 0
379 672 -380 0
380 -673 -381 0
380 -641 673 239 0
380 641 673 -239 0
-380 -673 381 0
-380 -641 673 -239 0
-380 641 673 239 0
381 238 -382 0
381 -238 382 0
-381 -238 -382 0
-381 238 382 0
382 640 -233 0
382 -640 233 0
-382 -640 -233 0
-382 640 233 0
383 673 -384 0
383 -673 -386 0
-383 -673 386 0
-383 673 384 0
384 232 -385 0
384 -232 385 0
-384 -232 -385 0
-384 232 385 0
385 639 -226 0
385 -639 226 0
-385 -639 -226 0
-385 639 226 0
386 225 -387 0
386 -225 387 0
-386 -225 -387 0
-386 225 387 0
387 638 -220 0
387 -638 220 0
-387 -638 -220 0
-387 638 220 0
388 -669 264 -404 0
388 669 264 -389 0
-388 -264 0
-388 -669 404 0
-388 669 389 0
-389 670 390 0
-389 -670 397 0
389 -670 -397 0
389 670 -390 0
-390 671 391 0
-390 -671 394 0
390 -671 -394 0
390 671 -391 0
-391 672 393 0
-391 -672 392 0
391 -672 -392 0
391 672 -393 0
392 -639 673 0
392 -638 -673 0
-392 639 673 0
-392 638 -673 0
393 -641 673 0
393 -640 -673 0
-393 641 673 0
-393 640 -673 0
394 672 -395 0
394 -672 -396 0
-394 -672 396 0
-394 672 395 0
395 -637 673 0
395 -636 -673 0
-395 637 673 0
-395 636 -673 0
396 -635 673 0
396 -634 -673 0
-396 635 673 0
-396 634 -673 0
397 671 -398 0
397 -671 -401 0
-397 -671 401 0
-397 671 398 0
398 672 -399 0
398 -672 -400 0
-398 -672 400 0
-398 672 399 0
399 -633 673 0
399 -632 -673 0
-399 633 673 0
-399 632 -673 0
400 -631 673 0
400 -630 -673 0
-400 631 673 0
-400 630 -673 0
401 672 -402 0
401 -672 -403 0
-401 -672 403 0
-401 672 402 0
402 -629 673 0
402 -628 -673 0
-402 629 673 0
-402 628 -673 0
403 -627 673 0
403 -626 -673 0
-403 627 673 0
-403 626 -673 0
404 670 -405 0
404 -670 -412 0
-404 -670 412 0
-404 670 405 0
405 671 -406 0
405 -671 -409 0
-405 -671 409 0
-405 671 406 0
406 672 -407 0
406 -672 -408 0
-406 -672 408 0
-406 672 407 0
407 -625 673 0
407 -624 -673 0
-407 625 673 0
-407 624 -673 0
408 -623 673 0
408 -622 -673 0
-408 623 673 0
-408 622 -673 0
409 672 -410 0
409 -672 -411 0
-409 -672 411 0
-409 672 410 0
410 -621 673 0
410 -620 -673 0
-410 621 673 0
-410 620 -673 0
411 -619 673 0
411 -618 -673 0
-411 619 673 0
-411 618 -673 0
412 671 -413 0
412 -671 -416 0
-412 -671 416 0
-412 671 413 0
413 672 -414 0
413 -672 -415 0
-413 -672 415 0
-413 672 414 0
414 -617 673 0
414 -616 -673 0
-414 617 673 0
-414 616 -673 0
415 -615 673 0
415 -614 -673 0
-415 615 673 0
-415 614 -673 0
416 -672 -417 0
416 672 -418 0
-416 672 418 0
-416 -672 417 0
417 -611 673 0
417 -610 -673 0
-417 611 673 0
-417 610 -673 0
418 -613 673 0
418 -612 -673 0
-418 613 673 0
-418 612 -673 0
-419 -439 456 0
-419 420 456 0
-419 -264 456 0
419 -456 0
419 264 -420 439 0
-420 -669 421 0
-420 669 427 431 0
420 -669 -421 0
420 669 -431 0
420 669 -427 0
421 670 -422 0
421 -670 -425 0
-421 -670 425 0
-421 670 422 0
422 671 -423 0
422 -671 -424 0
-422 -671 424 0
-422 671 423 0
423 -672 -273 0
423 672 -299 0
-423 672 299 0
-423 -672 273 0
424 672 -276 0
424 -672 -280 0
-424 -672 280 0
-424 672 276 0
425 671 -426 0
-425 -671 0
-425 426 0
426 -672 -256 0
426 672 -283 0
-426 672 283 0
-426 -672 256 0
427 -670 -428 0
-427 670 0
-427 428 0
428 671 -429 0
428 -671 -430 0
-428 -671 430 0
-428 671 429 0
429 -672 -289 0
429 672 -328 0
-429 672 328 0
-429 -672 289 0
430 672 -292 0
430 -672 -296 0
-430 -672 296 0
-430 672 292 0
431 670 -671 -437 0
431 670 671 -432 0
-431 -670 0
-431 -671 437 0
-431 671 432 0
432 672 -433 0
432 -672 -436 0
-432 -672 436 0
-432 672 433 0
433 -434 435 0
-433 434 0
-433 -435 0
-434 673 375 0
434 -673 0
434 -375 0
435 -673 377 0
-435 673 0
-435 -377 0
436 673 -378 0
436 -673 -363 0
-436 -673 363 0
-436 673 378 0
437 -672 -325 0
437 672 -438 0
-437 672 438 0
-437 -672 325 0
438 -673 -366 0
438 673 -364 0
-438 673 364 0
-438 -673 366 0
-439 669 440 0
-439 -669 450 0
439 -669 -450 0
439 669 -440 0
-440 670 441 0
-440 -670 447 0
440 -670 -447 0
440 670 -441 0
-441 671 444 0
-441 -671 442 0
441 -671 -442 0
441 671 -444 0
442 -672 -336 0
442 672 -443 0
-442 672 443 0
-442 -672 336 0
443 -632 673 0
443 -631 -673 0
-443 632 673 0
-443 631 -673 0
444 672 -445 0
444 -672 -446 0
-444 -672 446 0
-444 672 445 0
445 -636 673 0
445 -635 -673 0
-445 636 673 0
-445 635 -673 0
446 -634 673 0
446 -633 -673 0
-446 634 673 0
-446 633 -673 0
447 671 -448 0
447 -671 -449 0
-447 -671 449 0
-447 671 448 0
448 -672 -313 0
448 672 -337 0
-448 672 337 0
-448 -672 313 0
449 672 -314 0
449 -672 -316 0
-449 -672 316 0
-449 672 314 0
450 670 -451 0
450 -670 -454 0
-450 -670 454 0
-450 670 451 0
451 671 -452 0
451 -671 -453 0
-451 -671 453 0
-451 671 452 0
452 -672 -305 0
452 672 -317 0
-452 672 317 0
-452 -672 305 0
453 672 -306 0
453 -672 -308 0
-453 -672 308 0
-453 672 306 0
454 671 -455 0
-454 -671 0
-454 455 0
455 672 -309 0
455 -610 -672 673 0
-455 672 309 0
-455 -672 -673 0
-455 610 -672 0
456 6 -421 450 0
-456 -6 0
-456 421 0
-456 -450 0
-457 458 -486 -493 0
-457 -472 486 493 0
-457 458 486 493 0
-457 -472 -486 -493 0
457 486 -493 0
457 -486 493 0
457 -458 472 0
458 669 264 -465 0
458 -669 264 -459 0
-458 -264 0
-458 669 465 0
-458 -669 459 0
-459 670 462 0
-459 -670 460 0
459 -670 -460 0
459 670 -462 0
460 -671 -22 0
460 671 -461 0
-460 671 461 0
-460 -671 22 0
461 672 -349 0
461 -672 -351 0
-461 -672 351 0
-461 672 349 0
462 671 -463 0
462 -671 -464 0
-462 -671 464 0
-462 671 463 0
463 672 -355 0
463 -672 -357 0
-463 -672 357 0
-463 672 355 0
464 -672 -348 0
464 672 -358 0
-464 672 358 0
-464 -672 348 0
-465 670 471 0
-465 -670 466 0
-465 670 -469 0
465 -670 -466 0
465 670 469 -471 0
466 671 -467 0
466 -671 -468 0
-466 -671 468 0
-466 671 467 0
467 672 -365 0
467 -672 -368 0
-467 -672 368 0
-467 672 365 0
468 -672 -354 0
468 672 -369 0
-468 672 369 0
-468 -672 354 0
469 -671 470 0
-469 671 0
-469 -470 0
470 -672 -362 0
470 672 -376 0
-470 672 376 0
-470 -672 362 0
-471 671 -672 372 0
-471 671 672 383 0
471 -671 0
471 -672 -372 0
471 672 -383 0
472 -669 264 -480 0
472 669 264 -473 0
-472 -264 0
-472 -669 480 0
-472 669 473 0
-473 670 474 0
-473 -670 477 0
473 -670 -477 0
473 670 -474 0
-474 671 475 0
-474 -671 476 0
474 -671 -476 0
474 671 -475 0
-475 -672 395 0
-475 672 392 0
475 672 -392 0
475 -672 -395 0
476 672 -396 0
476 -672 -399 0
-476 -672 399 0
-476 672 396 0
477 671 -478 0
477 -671 -479 0
-477 -671 479 0
-477 671 478 0
478 672 -400 0
478 -672 -402 0
-478 -672 402 0
-478 672 400 0
479 672 -403 0
479 -672 -407 0
-479 -672 407 0
-479 672 403 0
480 670 -481 0
480 -670 -484 0
-480 -670 484 0
-480 670 481 0
481 671 -482 0
481 -671 -483 0
-481 -671 483 0
-481 671 482 0
482 672 -408 0
482 -672 -410 0
-482 -672 410 0
-482 672 408 0
483 672 -411 0
483 -672 -414 0
-483 -672 414 0
-483 672 411 0
484 -671 -19 0
484 671 -485 0
-484 671 485 0
-484 -671 19 0
485 672 -415 0
485 -672 -418 0
-485 -672 418 0
-485 672 415 0
486 669 264 -490 0
486 -669 264 -487 0
-486 -264 0
-486 669 490 0
-486 -669 487 0
487 670 -488 0
487 -670 -489 0
-487 -670 489 0
-487 670 488 0
488 -671 -347 0
488 671 -356 0
-488 671 356 0
-488 -671 347 0
489 671 -350 0
-489 -671 0
-489 350 0
-490 670 492 0
-490 491 492 0
490 -492 0
490 -670 -491 0
491 -671 -353 0
491 671 -367 0
-491 671 367 0
-491 -671 353 0
492 670 671 -371 0
492 670 -671 -361 0
-492 -670 0
-492 -671 361 0
-492 671 371 0
493 -669 264 -497 0
493 669 264 -494 0
-493 -264 0
-493 -669 497 0
-493 669 494 0
-494 670 495 0
-494 -670 496 0
494 -670 -496 0
494 670 -495 0
-495 -671 398 0
-495 671 394 0
495 671 -394 0
495 -671 -398 0
496 671 -401 0
496 -671 -406 0
-496 -671 406 0
-496 671 401 0
497 670 -498 0
497 -670 -499 0
-497 -670 499 0
-497 670 498 0
498 671 -409 0
498 -671 -413 0
-498 -671 413 0
-498 671 409 0
499 671 -416 0
-499 -671 0
-499 416 0
-500 459 501 502 0
-500 -480 501 502 0
500 -502 0
500 -501 0
500 -459 480 0
501 -345 404 0
-501 345 0
-501 -404 0
502 -503 506 0
502 -6 -503 0
-502 503 0
-502 6 -506 0
-503 670 505 0
-503 -670 504 0
503 -670 -504 0
503 670 -505 0
504 671 -424 0
504 -671 -426 0
-504 -671 426 0
-504 671 424 0
505 -671 -423 0
505 671 -430 0
-505 671 430 0
-505 -671 423 0
506 670 -507 0
506 -670 -508 0
-506 -670 508 0
-506 670 507 0
507 671 -449 0
507 -671 -452 0
-507 -671 452 0
-507 671 449 0
508 671 -453 0
508 -671 -455 0
-508 -671 455 0
-508 671 453 0
-509 -264 518 0
-509 510 518 0
-509 -514 518 0
509 -518 0
509 264 -510 514 0
-510 -669 511 0
-510 669 512 0
510 -669 -511 0
510 669 -512 0
511 670 -504 0
-511 -670 0
-511 504 0
-512 670 513 0
-512 -670 505 0
512 -670 -505 0
512 670 -513 0
513 -671 -429 0
513 671 -437 0
-513 671 437 0
-513 -671 429 0
-514 669 515 0
-514 -669 517 0
514 -669 -517 0
514 669 -515 0
-515 670 516 0
-515 -670 507 0
515 -670 -507 0
515 670 -516 0
516 671 -442 0
516 -671 -448 0
-516 -671 448 0
-516 671 442 0
517 670 -508 0
-517 -670 0
-517 508 0
-518 -525 531 0
-518 519 531 0
-518 -264 531 0
518 -531 0
518 264 -519 525 0
-519 -669 520 0
-519 669 522 524 0
519 -669 -520 0
519 669 -524 0
519 669 -522 0
520 -670 -21 0
520 670 -521 0
-520 670 521 0
-520 -670 21 0
521 -671 -461 0
521 671 -464 0
-521 671 464 0
-521 -671 461 0
522 -670 -523 0
-522 670 0
-522 523 0
523 -671 -463 0
523 671 -468 0
-523 671 468 0
-523 -671 463 0
524 670 671 -470 0
524 670 -671 -467 0
-524 -670 0
-524 -671 467 0
-524 671 470 0
-525 669 526 0
-525 -669 529 0
525 -669 -529 0
525 669 -526 0
-526 670 527 0
-526 -670 528 0
526 -670 -528 0
526 670 -527 0
-527 -671 478 0
-527 671 476 0
527 671 -476 0
527 -671 -478 0
528 671 -479 0
528 -671 -482 0
-528 -671 482 0
-528 671 479 0
529 -670 -18 0
529 670 -530 0
-529 670 530 0
-529 -670 18 0
530 671 -483 0
530 -671 -485 0
-530 -671 485 0
-530 671 483 0
531 6 -520 529 0
-531 -6 0
-531 520 0
-531 -529 0
-532 533 545 563 0
-532 -539 545 563 0
532 -563 0
532 -545 0
532 -533 539 0
533 669 264 -534 0
533 -669 264 -343 0
-533 -264 0
-533 669 534 0
-533 -669 343 0
-534 670 537 0
-534 -670 323 0
-534 670 -535 0
534 -670 -323 0
534 670 535 -537 0
535 -671 536 0
-535 671 0
-535 -536 0
536 672 -436 0
536 -672 -438 0
-536 -672 438 0
-536 672 436 0
-537 671 -672 433 0
-537 671 672 538 0
537 -671 0
537 -672 -433 0
537 672 -538 0
538 -673 -373 0
538 673 -386 0
-538 673 386 0
-538 -673 373 0
539 669 264 -540 0
539 -669 264 -342 0
-539 -264 0
-539 669 540 0
-539 -669 342 0
-540 -670 334 0
-540 670 541 0
540 -670 -334 0
540 670 -541 0
-541 671 542 0
-541 -671 544 0
541 -671 -544 0
541 671 -542 0
-542 672 543 0
-542 -672 445 0
542 -672 -445 0
542 672 -543 0
543 -638 673 0
543 -637 -673 0
-543 638 673 0
-543 637 -673 0
544 -672 -443 0
544 672 -446 0
-544 672 446 0
-544 -672 443 0
-545 546 -560 0
-545 546 557 0
-545 -264 546 0
545 -546 0
545 264 -557 560 0
546 547 -552 0
-546 -547 0
-546 552 0
547 669 264 -548 0
547 -669 264 -503 0
-547 -264 0
-547 669 548 0
-547 -669 503 0
-548 670 550 0
-548 -670 513 0
-548 670 -549 0
548 -670 -513 0
548 670 549 -550 0
549 -671 432 0
-549 671 0
-549 -432 0
-550 671 -672 538 0
-550 671 672 551 0
550 -671 0
550 -672 -538 0
550 672 -551 0
551 673 -381 0
551 -673 -384 0
-551 -673 384 0
-551 673 381 0
552 669 264 -553 0
552 -669 264 -506 0
-552 -264 0
-552 669 553 0
-552 -669 506 0
-553 -670 516 0
-553 670 554 0
553 -670 -516 0
553 670 -554 0
-554 -671 444 0
-554 671 555 0
554 -671 -444 0
554 671 -555 0
-555 672 556 0
-555 -672 543 0
555 -672 -543 0
555 672 -556 0
556 -640 673 0
556 -639 -673 0
-556 640 673 0
-556 639 -673 0
-557 -669 558 0
-557 669 559 0
557 -669 -558 0
557 669 -559 0
558 670 -346 0
-558 -670 0
-558 346 0
-559 670 360 0
-559 -670 352 0
559 -670 -352 0
559 670 -360 0
-560 669 561 0
-560 -669 562 0
560 -669 -562 0
560 669 -561 0
-561 -670 405 0
-561 670 397 0
561 670 -397 0
561 -670 -405 0
562 670 -412 0
-562 -670 0
-562 412 0
-563 -264 564 0
-563 564 572 0
-563 564 -575 0
563 -564 0
563 264 -572 575 0
-564 487 567 0
-564 -565 567 0
-564 -6 567 0
564 -567 0
564 6 -487 565 0
565 14 267 268 -566 0
-565 566 0
-565 -14 0
-565 -268 0
-565 -267 0
566 266 -497 0
-566 -266 0
-566 497 0
567 264 -568 571 0
567 264 -568 -570 0
-567 -264 0
-567 568 0
-567 570 -571 0
568 -20 -569 0
568 669 -569 0
-568 569 0
-568 -669 20 0
-569 669 -670 521 0
-569 669 670 523 0
569 -669 0
569 -670 -521 0
569 670 -523 0
-570 669 -530 0
-570 670 -18 0
-570 669 670 0
570 -669 18 0
570 -670 530 0
570 -669 -670 0
-571 669 670 528 0
571 -669 0
571 -528 0
571 -670 0
572 -573 -574 0
572 669 -574 0
-572 574 0
-572 -669 573 0
573 670 -460 0
-573 -670 0
-573 460 0
-574 669 -670 462 0
-574 669 670 466 0
574 -669 0
574 -670 -462 0
574 670 -466 0
-575 669 576 0
-575 -669 577 0
575 -669 -577 0
575 669 -576 0
-576 -670 481 0
-576 670 477 0
576 670 -477 0
576 -670 -481 0
577 670 -484 0
-577 -670 0
-577 484 0
-578 -6 579 605 0
-578 579 605 606 0
578 -605 0
578 -579 0
578 6 -606 0
-579 344 580 590 0
-579 -388 580 590 0
579 -590 0
579 -580 0
579 -344 388 0
-580 -585 589 0
-580 581 589 0
-580 -264 589 0
580 -589 0
580 264 -581 585 0
-581 -669 582 0
-581 669 583 584 0
581 -669 -582 0
581 669 -584 0
581 669 -583 0
582 -670 -254 0
582 670 -271 0
-582 670 271 0
-582 -670 254 0
583 -670 -287 0
-583 670 0
-583 287 0
584 670 671 -536 0
584 670 -671 -324 0
-584 -670 0
-584 -671 324 0
-584 671 536 0
-585 669 586 0
-585 -669 588 0
585 -669 -588 0
585 669 -586 0
-586 -670 311 0
-586 670 587 0
586 -670 -311 0
586 670 -587 0
-587 671 544 0
-587 -671 335 0
587 -671 -335 0
587 671 -544 0
588 -670 -258 0
588 670 -303 0
-588 670 303 0
-588 -670 258 0
589 533 -539 0
-589 -533 0
-589 539 0
-590 582 591 0
-590 -6 591 0
-590 -588 591 0
590 -591 0
590 6 -582 588 0
-591 592 -602 0
-591 592 599 0
-591 -264 592 0
591 -592 0
591 264 -599 602 0
592 264 593 -595 596 0
-592 -596 0
-592 595 0
-592 -264 0
-592 -593 0
593 -669 594 0
-593 669 0
-593 -594 0
594 670 -489 0
-594 -670 0
-594 489 0
-595 669 -670 488 0
-595 669 670 491 0
595 -669 0
595 -670 -488 0
595 670 -491 0
-596 669 597 0
-596 -669 598 0
596 -669 -598 0
596 669 -597 0
-597 -670 498 0
-597 670 496 0
597 670 -496 0
597 -670 -498 0
598 670 -499 0
-598 -670 0
-598 499 0
599 -600 -601 0
599 669 -601 0
-599 601 0
-599 -669 600 0
600 670 -425 0
-600 -670 0
-600 425 0
-601 669 -670 422 0
-601 669 670 428 0
601 -669 0
601 -670 -422 0
601 670 -428 0
-602 669 603 0
-602 -669 604 0
602 -669 -604 0
602 669 -603 0
-603 -670 451 0
-603 670 447 0
603 670 -447 0
603 -670 -451 0
604 670 -454 0
-604 -670 0
-604 454 0
-605 -458 -552 0
-605 472 547 0
-605 -458 547 0
-605 472 -552 0
605 458 -472 0
605 -547 552 0
-606 594 607 609 0
-606 -598 607 609 0
606 -609 0
606 -607 0
606 -594 598 0
-607 -577 608 0
-607 573 608 0
607 -608 0
607 -573 577 0
-608 -517 600 0
-608 511 -604 0
-608 511 600 0
-608 -517 -604 0
608 -511 517 0
608 -600 604 0
-609 -338 558 0
-609 319 -562 0
-609 319 558 0
-609 -338 -562 0
609 -319 338 0
609 -558 562 0
-674 0
2 0

